# Objective value = 3.0486379266465804e+02
x[0] 1
x[1] 1
x[2] 0
x[3] 0
x[4] 1
x[5] 0
x[6] 0
x[7] 1
x[8] 1
x[9] 0
x[10] 1
x[11] 1
x[12] 0
x[13] 1
x[14] 0
x[15] 0
x[16] 1
x[17] 1
x[18] 1
x[19] 1
x[20] 0
x[21] 1
x[22] 0
x[23] 1
x[24] 0
x[25] 0
x[26] 1
x[27] 1
x[28] 1
x[29] 0
x[30] 0
x[31] 0
x[32] 1
x[33] 0
x[34] 1
x[35] 0
x[36] 0
x[37] 1
x[38] 0
x[39] 0
x[40] 1
x[41] 1
x[42] 0
x[43] 0
x[44] 0
x[45] 1
x[46] 0
x[47] 0
x[48] 0
x[49] 1
x[50] 0
x[51] 0
x[52] 1
x[53] 1
x[54] 0
x[55] 0
x[56] 1
x[57] 0
x[58] 1
x[59] 1
x[60] 0
x[61] 1
x[62] 0
x[63] 1
x[64] 1
x[65] 1
x[66] 0
x[67] 0
x[68] 0
x[69] 1
x[70] 0
x[71] 1
x[72] 0
x[73] 0
x[74] 0
x[75] 0
x[76] 0
x[77] 1
x[78] 1
x[79] 1
x[80] 1
x[81] 0
x[82] 1
x[83] 0
x[84] 1
x[85] 0
x[86] 1
x[87] 0
x[88] 1
x[89] 0
x[90] 1
x[91] 0
x[92] 1
x[93] 0
x[94] 0
x[95] 1
x[96] 0
x[97] 0
x[98] 1
x[99] 0
x[100] 0
x[101] 0
x[102] 0
x[103] 1
x[104] 0
x[105] 0
x[106] 0
x[107] 1
x[108] 1
x[109] 1
x[110] 0
x[111] 1
x[112] 1
x[113] 0
x[114] 1
x[115] 1
x[116] 0
x[117] 0
x[118] 1
x[119] 0
x[120] 1
x[121] 1
x[122] 0
x[123] 0
x[124] 0
x[125] 1
x[126] 1
x[127] 1
x[128] 1
x[129] 1
x[130] 1
x[131] 0
x[132] 1
x[133] 0
x[134] 1
x[135] 1
x[136] 0
x[137] 1
x[138] 0
x[139] 0
x[140] 0
x[141] 0
x[142] 0
x[143] 1
x[144] 1
x[145] 0
x[146] 0
x[147] 1
x[148] 0
x[149] 0
x[150] 0
x[151] 0
x[152] 0
x[153] 1
x[154] 1
x[155] 0
x[156] 1
x[157] 1
x[158] 1
x[159] 0
x[160] 1
x[161] 1
x[162] 0
x[163] 1
x[164] 1
x[165] 0
x[166] 0
x[167] 1
x[168] 0
x[169] 0
x[170] 0
x[171] 1
x[172] 0
x[173] 0
x[174] 1
x[175] 1
x[176] 0
x[177] 0
x[178] 0
x[179] 0
x[180] 1
x[181] 0
x[182] 1
x[183] 1
x[184] 1
x[185] 1
x[186] 1
x[187] 0
x[188] 1
x[189] 1
x[190] 1
x[191] 1
x[192] 0
x[193] 0
x[194] 1
x[195] 1
x[196] 1
x[197] 0
x[198] 1
x[199] 1
x[200] 1
x[201] 0
x[202] 1
x[203] 1
x[204] 0
x[205] 0
x[206] 1
x[207] 1
x[208] 1
x[209] 0
x[210] 0
x[211] 0
x[212] 1
x[213] 0
x[214] 0
x[215] 0
x[216] 1
x[217] 0
x[218] 0
x[219] 1
x[220] 0
x[221] 0
x[222] 1
x[223] 0
x[224] 1
x[225] 0
x[226] 1
x[227] 0
x[228] 1
x[229] 1
x[230] 1
x[231] 1
x[232] 1
x[233] 1
x[234] 0
x[235] 0
x[236] 0
x[237] 1
x[238] 0
x[239] 1
x[240] 1
x[241] 0
x[242] 1
x[243] 0
x[244] 1
x[245] 0
x[246] 0
x[247] 1
x[248] 0
x[249] 1
x[250] 1
x[251] 1
x[252] 1
x[253] 1
x[254] 1
x[255] 1
x[256] 1
x[257] 0
x[258] 0
x[259] 1
x[260] 1
x[261] 1
x[262] 1
x[263] 0
x[264] 0
x[265] 1
x[266] 0
x[267] 1
x[268] 0
x[269] 0
x[270] 0
x[271] 0
x[272] 0
x[273] 1
x[274] 0
x[275] 0
x[276] 1
x[277] 1
x[278] 0
x[279] 0
x[280] 1
x[281] 0
x[282] 1
x[283] 0
x[284] 1
x[285] 1
x[286] 0
x[287] 0
x[288] 0
x[289] 0
x[290] 1
x[291] 0
x[292] 1
x[293] 1
x[294] 0
x[295] 0
x[296] 1
x[297] 0
x[298] 0
x[299] 1
x[300] 0
x[301] 1
x[302] 1
x[303] 1
x[304] 0
x[305] 1
x[306] 1
x[307] 0
x[308] 1
x[309] 0
x[310] 1
x[311] 0
x[312] 0
x[313] 0
x[314] 1
x[315] 1
x[316] 0
x[317] 0
x[318] 0
x[319] 1
x[320] 1
x[321] 0
x[322] 0
x[323] 1
x[324] 0
x[325] 0
x[326] 0
x[327] 1
x[328] 0
x[329] 0
x[330] 1
x[331] 1
x[332] 0
x[333] 0
x[334] 1
x[335] 1
x[336] 1
x[337] 1
x[338] 0
x[339] 0
x[340] 0
x[341] 0
x[342] 1
x[343] 1
x[344] 0
x[345] 1
x[346] 0
x[347] 1
x[348] 1
x[349] 1
x[350] 1
x[351] 0
x[352] 0
x[353] 0
x[354] 1
x[355] 0
x[356] 1
x[357] 0
x[358] 0
x[359] 1
x[360] 1
x[361] 1
x[362] 1
x[363] 1
x[364] 0
x[365] 1
x[366] 0
x[367] 0
x[368] 0
x[369] 1
x[370] 1
x[371] 0
x[372] 0
x[373] 1
x[374] 1
x[375] 0
x[376] 1
x[377] 0
x[378] 0
x[379] 0
x[380] 0
x[381] 1
x[382] 1
x[383] 0
x[384] 1
x[385] 1
x[386] 1
x[387] 0
x[388] 0
x[389] 0
x[390] 0
x[391] 0
x[392] 1
x[393] 1
x[394] 0
x[395] 0
x[396] 1
x[397] 1
x[398] 0
x[399] 0
x[400] 0
x[401] 1
x[402] 1
x[403] 1
x[404] 0
x[405] 1
x[406] 0
x[407] 1
x[408] 0
x[409] 0
x[410] 1
x[411] 1
x[412] 1
x[413] 1
x[414] 0
x[415] 0
x[416] 0
x[417] 1
x[418] 1
x[419] 1
x[420] 1
x[421] 1
x[422] 1
x[423] 0
x[424] 1
x[425] 0
x[426] 0
x[427] 1
x[428] 1
x[429] 1
x[430] 0
x[431] 1
x[432] 1
x[433] 1
x[434] 1
x[435] 0
x[436] 0
x[437] 0
x[438] 0
x[439] 0
x[440] 0
x[441] 0
x[442] 0
x[443] 0
x[444] 0
x[445] 1
x[446] 0
x[447] 1
x[448] 1
x[449] 1
x[450] 1
x[451] 0
x[452] 1
x[453] 1
x[454] 0
x[455] 0
x[456] 0
x[457] 1
x[458] 0
x[459] 1
x[460] 0
x[461] 0
x[462] 0
x[463] 1
x[464] 0
x[465] 0
x[466] 0
x[467] 1
x[468] 0
x[469] 0
x[470] 0
x[471] 1
x[472] 0
x[473] 1
x[474] 1
x[475] 1
x[476] 1
x[477] 1
x[478] 1
x[479] 1
x[480] 0
x[481] 1
x[482] 1
x[483] 0
x[484] 1
x[485] 0
x[486] 0
x[487] 0
x[488] 0
x[489] 0
x[490] 0
x[491] 0
x[492] 0
x[493] 1
x[494] 1
x[495] 0
x[496] 1
x[497] 0
x[498] 1
x[499] 0
x[500] 1
x[501] 0
x[502] 1
x[503] 0
x[504] 1
x[505] 0
x[506] 0
x[507] 1
x[508] 0
x[509] 0
x[510] 1
x[511] 0
x[512] 1
x[513] 1
x[514] 0
x[515] 1
x[516] 1
x[517] 0
x[518] 1
x[519] 0
x[520] 0
x[521] 0
x[522] 0
x[523] 1
x[524] 1
x[525] 1
x[526] 0
x[527] 0
x[528] 0
x[529] 0
x[530] 0
x[531] 1
x[532] 0
x[533] 0
x[534] 0
x[535] 1
x[536] 1
x[537] 0
x[538] 0
x[539] 1
x[540] 0
x[541] 1
x[542] 0
x[543] 1
x[544] 1
x[545] 1
x[546] 0
x[547] 1
x[548] 1
x[549] 1
x[550] 0
x[551] 1
x[552] 0
x[553] 0
x[554] 1
x[555] 1
x[556] 1
x[557] 1
x[558] 0
x[559] 1
x[560] 0
x[561] 0
x[562] 0
x[563] 1
x[564] 0
x[565] 1
x[566] 1
x[567] 0
x[568] 1
x[569] 0
x[570] 0
x[571] 0
x[572] 0
x[573] 0
x[574] 1
x[575] 1
x[576] 0
x[577] 1
x[578] 1
x[579] 1
x[580] 0
x[581] 1
x[582] 1
x[583] 1
x[584] 0
x[585] 1
x[586] 1
x[587] 1
x[588] 1
x[589] 0
x[590] 0
x[591] 1
x[592] 1
x[593] 0
x[594] 1
x[595] 0
x[596] 0
x[597] 1
x[598] 1
x[599] 1
x[600] 1
x[601] 0
x[602] 0
x[603] 1
x[604] 0
x[605] 1
x[606] 1
x[607] 0
x[608] 1
x[609] 1
x[610] 0
x[611] 1
x[612] 1
x[613] 1
x[614] 1
x[615] 1
x[616] 0
x[617] 1
x[618] 0
x[619] 0
x[620] 0
x[621] 0
x[622] 0
x[623] 1
x[624] 1
x[625] 1
x[626] 1
x[627] 0
x[628] 0
x[629] 1
x[630] 0
x[631] 0
x[632] 0
x[633] 0
x[634] 1
x[635] 0
x[636] 1
x[637] 1
x[638] 0
x[639] 1
x[640] 1
x[641] 0
x[642] 0
x[643] 1
x[644] 0
x[645] 0
x[646] 1
x[647] 0
x[648] 1
x[649] 1
x[650] 1
x[651] 1
x[652] 0
x[653] 1
x[654] 0
x[655] 1
x[656] 1
x[657] 0
x[658] 1
x[659] 1
x[660] 0
x[661] 0
x[662] 0
x[663] 0
x[664] 1
x[665] 0
x[666] 1
x[667] 0
x[668] 0
x[669] 0
x[670] 1
x[671] 1
x[672] 0
x[673] 0
x[674] 0
x[675] 1
x[676] 1
x[677] 0
x[678] 1
x[679] 1
x[680] 0
x[681] 0
x[682] 1
x[683] 1
x[684] 0
x[685] 0
x[686] 1
x[687] 0
x[688] 0
x[689] 1
x[690] 1
x[691] 1
x[692] 1
x[693] 0
x[694] 0
x[695] 1
x[696] 0
x[697] 1
x[698] 0
x[699] 0
x[700] 0
x[701] 1
x[702] 1
x[703] 0
x[704] 1
x[705] 0
x[706] 1
x[707] 0
x[708] 0
x[709] 0
x[710] 1
x[711] 0
x[712] 1
x[713] 1
x[714] 1
x[715] 1
x[716] 1
x[717] 0
x[718] 1
x[719] 1
x[720] 1
x[721] 0
x[722] 1
x[723] 0
x[724] 1
x[725] 1
x[726] 0
x[727] 0
x[728] 0
x[729] 0
x[730] 0
x[731] 1
x[732] 1
x[733] 0
x[734] 1
x[735] 1
x[736] 0
x[737] 0
x[738] 0
x[739] 1
x[740] 1
x[741] 1
x[742] 0
x[743] 0
x[744] 0
x[745] 0
x[746] 0
x[747] 0
x[748] 1
x[749] 0
x[750] 1
x[751] 0
x[752] 1
x[753] 0
x[754] 0
x[755] 1
x[756] 0
x[757] 1
x[758] 1
x[759] 0
x[760] 1
x[761] 1
x[762] 1
x[763] 0
x[764] 0
x[765] 0
x[766] 1
x[767] 0
x[768] 0
x[769] 0
x[770] 0
x[771] 1
x[772] 1
x[773] 0
x[774] 0
x[775] 0
x[776] 0
x[777] 1
x[778] 0
x[779] 0
x[780] 1
x[781] 1
x[782] 0
x[783] 0
x[784] 1
x[785] 1
x[786] 1
x[787] 1
x[788] 1
x[789] 0
x[790] 1
x[791] 0
x[792] 0
x[793] 0
x[794] 1
x[795] 1
x[796] 0
x[797] 0
x[798] 1
x[799] 0
x[800] 1
x[801] 1
x[802] 0
x[803] 0
x[804] 1
x[805] 1
x[806] 0
x[807] 0
x[808] 1
x[809] 0
x[810] 1
x[811] 0
x[812] 0
x[813] 1
x[814] 0
x[815] 0
x[816] 1
x[817] 0
x[818] 0
x[819] 1
x[820] 0
x[821] 0
x[822] 0
x[823] 0
x[824] 0
x[825] 0
x[826] 1
x[827] 1
x[828] 1
x[829] 1
x[830] 0
x[831] 0
x[832] 1
x[833] 0
x[834] 0
x[835] 1
x[836] 0
x[837] 0
x[838] 0
x[839] 1
x[840] 0
x[841] 0
x[842] 1
x[843] 1
x[844] 1
x[845] 1
x[846] 1
x[847] 0
x[848] 0
x[849] 0
x[850] 1
x[851] 1
x[852] 0
x[853] 1
x[854] 1
x[855] 1
x[856] 1
x[857] 1
x[858] 0
x[859] 1
x[860] 0
x[861] 1
x[862] 1
x[863] 0
x[864] 1
x[865] 0
x[866] 0
x[867] 1
x[868] 0
x[869] 1
x[870] 1
x[871] 0
x[872] 1
x[873] 0
x[874] 0
x[875] 1
x[876] 0
x[877] 1
x[878] 1
x[879] 0
x[880] 0
x[881] 0
x[882] 1
x[883] 1
x[884] 1
x[885] 0
x[886] 1
x[887] 0
x[888] 0
x[889] 1
x[890] 1
x[891] 0
x[892] 1
x[893] 1
x[894] 1
x[895] 0
x[896] 1
x[897] 0
x[898] 0
x[899] 1
x[900] 0
x[901] 0
x[902] 0
x[903] 1
x[904] 0
x[905] 0
x[906] 0
x[907] 1
x[908] 0
x[909] 1
x[910] 0
x[911] 1
x[912] 0
x[913] 0
x[914] 0
x[915] 0
x[916] 1
x[917] 1
x[918] 0
x[919] 1
x[920] 0
x[921] 1
x[922] 1
x[923] 0
x[924] 1
x[925] 0
x[926] 1
x[927] 0
x[928] 0
x[929] 1
x[930] 0
x[931] 0
x[932] 1
x[933] 1
x[934] 0
x[935] 0
x[936] 0
x[937] 1
x[938] 1
x[939] 0
x[940] 0
x[941] 0
x[942] 1
x[943] 1
x[944] 1
x[945] 0
x[946] 1
x[947] 0
x[948] 1
x[949] 0
x[950] 0
x[951] 0
x[952] 0
x[953] 0
x[954] 1
x[955] 1
x[956] 1
x[957] 1
x[958] 1
x[959] 1
x[960] 1
x[961] 1
x[962] 0
x[963] 1
x[964] 0
x[965] 0
x[966] 0
x[967] 0
x[968] 1
x[969] 1
x[970] 0
x[971] 1
x[972] 1
x[973] 0
x[974] 0
x[975] 1
x[976] 0
x[977] 0
x[978] 0
x[979] 1
x[980] 1
x[981] 0
x[982] 0
x[983] 0
x[984] 0
x[985] 0
x[986] 1
x[987] 0
x[988] 0
x[989] 0
x[990] 0
x[991] 1
x[992] 0
x[993] 0
x[994] 1
x[995] 0
x[996] 0
x[997] 1
x[998] 1
x[999] 0
